[[14, 53, 59, 11, 66, 65, 38, 10, 31, 58, 72, 39, 12, 40], [9, 32, 25, 55, 18, 50, 44, 3, 24, 49, 16, 51, 17], [6, 33, 73, 63, 23, 56, 41, 43, 42, 64, 22, 62, 28, 61], [74, 21, 47, 69, 36, 71, 60, 70, 20, 37, 57, 15, 5, 48], [29, 45, 30, 2, 68, 4, 75, 76, 26, 67, 34, 46, 52, 27, 13, 54, 19, 8, 7, 35]]